p cnf 14 40
1 4 0
-1 -4 0
2 5 0
-2 -5 0
2 3 -6 0
2 -3 -6 0
-2 3 -6 0
-2 -3 6 0
2 3 -7 0
2 -3 -7 0
-2 3 -7 0
-2 -3 7 0
5 7 -8 0
5 -7 8 0
-5 7 8 0
-5 -7 8 0
1 2 -9 0
1 -2 -9 0
-1 2 -9 0
-1 -2 9 0
1 3 -11 0
1 -3 11 0
-1 3 11 0
-1 -3 11 0
2 3 -10 0
2 -3 10 0
-2 3 10 0
-2 -3 10 0
10 12 0
-10 -12 0
12 11 -13 0
12 -11 13 0
-12 11 13 0
-12 -11 13 0
9 13 14 0
9 -13 -14 0
-9 13 -14 0
-9 -13 14 0
-8 -14 0
8 14 0
c 1 = a
c 2 = b
c 3 = c
c 4 = g1
c 5 = g2
c 6 = g3
c 7 = g4
c 8 = o
c 9 = g1'
c 10 = g2'
c 11 = g3'
c 12 = g4'
c 13 = g5'
c 14 = o'
